100 100 100
50
41 47 42
17 38 37
45 99 88
27 39 23
34 5 14
30 69 88
26 45 9
10 4 5
68 23 93
22 23 29
77 7 93
21 22 43
79 49 77
39 47 33
25 32 50
20 72 100
11 93 93
21 34 2
14 8 42
88 89 43
11 19 39
5 80 99
44 44 22
10 66 84
85 37 66
84 43 67
83 3 74
88 84 77
44 24 47
49 97 98
17 34 29
33 34 35
38 35 10
88 70 73
92 98 15
88 80 8
26 34 1
14 90 67
64 59 92
74 50 55
44 21 15
79 23 80
24 21 32
5 39 26
27 28 38
82 46 84
91 92 84
29 30 32
73 26 74
12 9 42
